NAME          SET_PARTITION
ROWS
 N  COST
 E  ELEM1
 E  ELEM2
 E  ELEM3
 E  ELEM4
 E  ELEM5
 E  ELEM6
 E  ELEM7
 E  ELEM8
 E  ELEM9
 E  ELEM10
 E  ELEM11
 E  ELEM12
 E  ELEM13
 E  ELEM14
 E  ELEM15
 E  ELEM16
 E  ELEM17
 E  ELEM18
 E  ELEM19
 E  ELEM20
COLUMNS
    X1       COST      97         ELEM1     1          ELEM2     1          
    X1       ELEM3     1          ELEM5     1          
    X1       ELEM6     1          ELEM7     1          
    X1       ELEM8     1          ELEM9     1          
    X1       ELEM10    1          ELEM13    1          
    X1       ELEM14    1          ELEM15    1          
    X1       ELEM16    1          ELEM17    1          
    X1       ELEM18    1          ELEM19    1          
    X1       ELEM20    1          
    X2       COST      47         ELEM1     1          ELEM5     1          
    X2       ELEM19    1          
    X3       COST      3          ELEM1     1          ELEM2     1          
    X3       ELEM3     1          ELEM4     1          
    X3       ELEM5     1          ELEM6     1          
    X3       ELEM8     1          ELEM9     1          
    X3       ELEM10    1          ELEM11    1          
    X3       ELEM12    1          ELEM13    1          
    X3       ELEM14    1          ELEM15    1          
    X3       ELEM16    1          ELEM18    1          
    X3       ELEM20    1          
    X4       COST      45         ELEM4     1          ELEM11    1          
    X4       ELEM12    1          
    X5       COST      46         ELEM1     1          ELEM2     1          
    X5       ELEM4     1          ELEM7     1          
    X5       ELEM8     1          ELEM9     1          
    X5       ELEM10    1          ELEM12    1          
    X5       ELEM13    1          ELEM14    1          
    X5       ELEM15    1          ELEM16    1          
    X5       ELEM17    1          ELEM20    1          
    X6       COST      55         ELEM7     1          ELEM17    1          
    X6       ELEM19    1          
    X7       COST      44         ELEM3     1          ELEM5     1          
    X7       ELEM6     1          ELEM11    1          
    X7       ELEM18    1          ELEM19    1          
    X8       COST      28         ELEM2     1          ELEM3     1          
    X8       ELEM4     1          ELEM6     1          
    X8       ELEM7     1          ELEM8     1          
    X8       ELEM9     1          ELEM10    1          
    X8       ELEM11    1          ELEM12    1          
    X8       ELEM13    1          ELEM14    1          
    X8       ELEM15    1          ELEM16    1          
    X8       ELEM17    1          ELEM18    1          
    X8       ELEM20    1          
    X9       COST      18         ELEM1     1          ELEM4     1          
    X9       ELEM5     1          ELEM8     1          
    X9       ELEM14    1          ELEM15    1          
    X9       ELEM16    1          ELEM19    1          
    X10      COST      43         ELEM2     1          ELEM3     1          
    X10      ELEM6     1          ELEM7     1          
    X10      ELEM9     1          ELEM10    1          
    X10      ELEM11    1          ELEM12    1          
    X10      ELEM13    1          ELEM17    1          
    X10      ELEM18    1          ELEM20    1          
RHS
    RHS       ELEM1     1       
    RHS       ELEM2     1       
    RHS       ELEM3     1       
    RHS       ELEM4     1       
    RHS       ELEM5     1       
    RHS       ELEM6     1       
    RHS       ELEM7     1       
    RHS       ELEM8     1       
    RHS       ELEM9     1       
    RHS       ELEM10    1       
    RHS       ELEM11    1       
    RHS       ELEM12    1       
    RHS       ELEM13    1       
    RHS       ELEM14    1       
    RHS       ELEM15    1       
    RHS       ELEM16    1       
    RHS       ELEM17    1       
    RHS       ELEM18    1       
    RHS       ELEM19    1       
    RHS       ELEM20    1       
BOUNDS
 BV BND1      X1
 BV BND1      X2
 BV BND1      X3
 BV BND1      X4
 BV BND1      X5
 BV BND1      X6
 BV BND1      X7
 BV BND1      X8
 BV BND1      X9
 BV BND1      X10
ENDATA
